c Standarized MaxSat Instance
c{
c "sha1sum": "3d226a123c6db464e1cb0941e13c586096fbed38",
c "nvars": 137,
c "ncls": 828,
c "total_lits": 1655,
c "nhards": 627,
c "nhard_nlits": 1295,
c "nhard_len_stats":
c    { "min": 1,
c      "max": 5,
c      "ave": 2.0654,
c      "stddev": 0.3443 },
c "nsofts": 201,
c "nsoft_nlits": 360,
c "nsoft_len_stats":
c    { "min": 1,
c      "max": 2,
c      "ave": 1.7910,
c      "stddev": 0.4066 },
c "nsoft_wts": 6,
c "soft_wt_stats":
c    { "min": 20,
c      "max": 27382,
c      "ave": 21863.9303,
c      "stddev": 10815.2472 }
c}
c------------------------------------------------------------
c ./depot01c.wcsp
c PSEUDOBOOLEAN 13691
c LOWER BOUND 80
h 1 2 3 0
h -1 -2 0
h -1 -3 0
h -2 -1 0
h -2 -3 0
h -3 -1 0
h -3 -2 0
h 4 5 6 0
h -4 -5 0
h -4 -6 0
h -5 -4 0
h -5 -6 0
h -6 -4 0
h -6 -5 0
h 7 8 9 0
h -7 -8 0
h -7 -9 0
h -8 -7 0
h -8 -9 0
h -9 -7 0
h -9 -8 0
h 11 12 13 0
h -11 -12 0
h -11 -13 0
h -12 -11 0
h -12 -13 0
h -13 -11 0
h -13 -12 0
h 14 15 16 0
h -14 -15 0
h -14 -16 0
h -15 -14 0
h -15 -16 0
h -16 -14 0
h -16 -15 0
h 17 18 19 0
h -17 -18 0
h -17 -19 0
h -18 -17 0
h -18 -19 0
h -19 -17 0
h -19 -18 0
h 20 21 22 0
h -20 -21 0
h -20 -22 0
h -21 -20 0
h -21 -22 0
h -22 -20 0
h -22 -21 0
h 23 24 25 0
h -23 -24 0
h -23 -25 0
h -24 -23 0
h -24 -25 0
h -25 -23 0
h -25 -24 0
h 26 27 28 29 0
h -26 -27 0
h -26 -28 0
h -26 -29 0
h -27 -26 0
h -27 -28 0
h -27 -29 0
h -28 -26 0
h -28 -27 0
h -28 -29 0
h -29 -26 0
h -29 -27 0
h -29 -28 0
h 30 31 32 33 0
h -30 -31 0
h -30 -32 0
h -30 -33 0
h -31 -30 0
h -31 -32 0
h -31 -33 0
h -32 -30 0
h -32 -31 0
h -32 -33 0
h -33 -30 0
h -33 -31 0
h -33 -32 0
h 34 35 36 37 0
h -34 -35 0
h -34 -36 0
h -34 -37 0
h -35 -34 0
h -35 -36 0
h -35 -37 0
h -36 -34 0
h -36 -35 0
h -36 -37 0
h -37 -34 0
h -37 -35 0
h -37 -36 0
h 38 39 40 0
h -38 -39 0
h -38 -40 0
h -39 -38 0
h -39 -40 0
h -40 -38 0
h -40 -39 0
h 41 42 43 0
h -41 -42 0
h -41 -43 0
h -42 -41 0
h -42 -43 0
h -43 -41 0
h -43 -42 0
h 45 46 47 48 49 0
h -45 -46 0
h -45 -47 0
h -45 -48 0
h -45 -49 0
h -46 -45 0
h -46 -47 0
h -46 -48 0
h -46 -49 0
h -47 -45 0
h -47 -46 0
h -47 -48 0
h -47 -49 0
h -48 -45 0
h -48 -46 0
h -48 -47 0
h -48 -49 0
h -49 -45 0
h -49 -46 0
h -49 -47 0
h -49 -48 0
h 50 51 52 53 0
h -50 -51 0
h -50 -52 0
h -50 -53 0
h -51 -50 0
h -51 -52 0
h -51 -53 0
h -52 -50 0
h -52 -51 0
h -52 -53 0
h -53 -50 0
h -53 -51 0
h -53 -52 0
h 55 56 57 0
h -55 -56 0
h -55 -57 0
h -56 -55 0
h -56 -57 0
h -57 -55 0
h -57 -56 0
h 65 66 67 0
h -65 -66 0
h -65 -67 0
h -66 -65 0
h -66 -67 0
h -67 -65 0
h -67 -66 0
h 68 69 70 0
h -68 -69 0
h -68 -70 0
h -69 -68 0
h -69 -70 0
h -70 -68 0
h -70 -69 0
h 71 72 73 0
h -71 -72 0
h -71 -73 0
h -72 -71 0
h -72 -73 0
h -73 -71 0
h -73 -72 0
h 74 75 76 77 0
h -74 -75 0
h -74 -76 0
h -74 -77 0
h -75 -74 0
h -75 -76 0
h -75 -77 0
h -76 -74 0
h -76 -75 0
h -76 -77 0
h -77 -74 0
h -77 -75 0
h -77 -76 0
h 78 79 80 81 0
h -78 -79 0
h -78 -80 0
h -78 -81 0
h -79 -78 0
h -79 -80 0
h -79 -81 0
h -80 -78 0
h -80 -79 0
h -80 -81 0
h -81 -78 0
h -81 -79 0
h -81 -80 0
h 82 83 84 85 0
h -82 -83 0
h -82 -84 0
h -82 -85 0
h -83 -82 0
h -83 -84 0
h -83 -85 0
h -84 -82 0
h -84 -83 0
h -84 -85 0
h -85 -82 0
h -85 -83 0
h -85 -84 0
h 86 87 88 89 0
h -86 -87 0
h -86 -88 0
h -86 -89 0
h -87 -86 0
h -87 -88 0
h -87 -89 0
h -88 -86 0
h -88 -87 0
h -88 -89 0
h -89 -86 0
h -89 -87 0
h -89 -88 0
h 90 91 92 0
h -90 -91 0
h -90 -92 0
h -91 -90 0
h -91 -92 0
h -92 -90 0
h -92 -91 0
h 93 94 95 0
h -93 -94 0
h -93 -95 0
h -94 -93 0
h -94 -95 0
h -95 -93 0
h -95 -94 0
h 97 98 99 100 101 0
h -97 -98 0
h -97 -99 0
h -97 -100 0
h -97 -101 0
h -98 -97 0
h -98 -99 0
h -98 -100 0
h -98 -101 0
h -99 -97 0
h -99 -98 0
h -99 -100 0
h -99 -101 0
h -100 -97 0
h -100 -98 0
h -100 -99 0
h -100 -101 0
h -101 -97 0
h -101 -98 0
h -101 -99 0
h -101 -100 0
h 102 103 104 105 0
h -102 -103 0
h -102 -104 0
h -102 -105 0
h -103 -102 0
h -103 -104 0
h -103 -105 0
h -104 -102 0
h -104 -103 0
h -104 -105 0
h -105 -102 0
h -105 -103 0
h -105 -104 0
h 106 107 108 109 0
h -106 -107 0
h -106 -108 0
h -106 -109 0
h -107 -106 0
h -107 -108 0
h -107 -109 0
h -108 -106 0
h -108 -107 0
h -108 -109 0
h -109 -106 0
h -109 -107 0
h -109 -108 0
h 111 112 113 0
h -111 -112 0
h -111 -113 0
h -112 -111 0
h -112 -113 0
h -113 -111 0
h -113 -112 0
h -2 -6 0
h -3 -5 0
h -2 -9 0
h -3 -9 0
h -2 -11 0
h -3 -14 0
h -2 -34 0
h -2 44 0
h -3 44 0
h -3 -50 0
h -5 -9 0
h -6 -9 0
h -5 -17 0
h -6 -20 0
h -5 -26 0
h -6 -30 0
h -5 -45 0
h -6 -45 0
h -8 -23 0
h -9 -38 0
h -9 -41 0
h -9 -45 0
h -9 -55 0
h -10 54 0
27382 -12 -15 0
27382 -12 -16 0
27382 -13 -15 0
h -13 -16 0
27382 -12 -21 0
27382 -12 -22 0
27382 -13 -21 0
h -13 -22 0
h -12 -25 0
h -12 -32 0
h -12 -33 0
h -13 -33 0
h -12 -35 0
h -12 -36 0
h -13 -35 0
27382 -12 -39 0
27382 -12 -40 0
h -13 -39 0
h -13 -40 0
27382 -12 -42 0
27382 -12 -43 0
h -13 -42 0
h -13 -43 0
h -12 -47 0
h -12 -48 0
h -12 -49 0
27382 -12 -56 0
27382 -12 -57 0
h -13 -56 0
h -13 -57 0
27382 -13 58 0
h -12 61 0
27382 -15 -18 0
27382 -15 -19 0
27382 -16 -18 0
h -16 -19 0
h -15 -25 0
h -15 -28 0
h -15 -29 0
27382 -15 -39 0
27382 -15 -40 0
h -16 -39 0
h -16 -40 0
27382 -15 -42 0
27382 -15 -43 0
h -16 -42 0
h -16 -43 0
h -15 -47 0
h -15 -48 0
h -15 -49 0
h -15 -51 0
h -15 -53 0
27382 -15 -56 0
27382 -15 -57 0
h -16 -56 0
h -16 -57 0
h -16 -58 0
27382 -16 59 0
h -15 62 0
27382 -18 -21 0
27382 -18 -22 0
27382 -19 -21 0
27382 -19 -22 0
h -18 -27 0
h -18 -28 0
h -19 -27 0
h -19 -28 0
h -19 -29 0
h -18 -48 0
h -18 -51 0
h -18 -52 0
h -19 -51 0
h -19 -52 0
h -19 -53 0
h -19 -59 0
h -18 63 0
h -19 -65 0
h -19 -74 0
h -21 -31 0
h -21 -33 0
h -22 -31 0
h -22 -32 0
h -22 -33 0
h -21 -35 0
h -21 -37 0
h -22 -35 0
h -22 -36 0
h -22 -37 0
h -21 -47 0
h -22 -58 0
h -21 64 0
h -22 -65 0
h -22 -102 0
27382 -24 -39 0
h -24 -40 0
27382 -25 -39 0
h -25 -40 0
27382 -24 -42 0
h -24 -43 0
27382 -25 -42 0
h -25 -43 0
h -25 -46 0
27382 -24 -56 0
h -24 -57 0
27382 -25 -56 0
h -25 -57 0
h -25 -58 0
h -25 -59 0
h -24 -60 0
h -25 -60 0
h -24 -71 0
h -25 -90 0
h -25 -93 0
h -25 -97 0
h -25 -111 0
27382 -27 -51 0
27382 -27 -52 0
27382 -27 -53 0
27382 -28 -51 0
27382 -28 -52 0
27382 -28 -53 0
27382 -29 -51 0
27382 -29 -52 0
27382 -29 -53 0
h -28 -59 0
h -29 -59 0
h -29 -74 0
h -27 -78 0
h -28 -106 0
27382 -31 -35 0
27382 -31 -36 0
27382 -31 -37 0
27382 -32 -35 0
27382 -32 -36 0
27382 -32 -37 0
27382 -33 -35 0
27382 -33 -36 0
27382 -33 -37 0
h -33 -47 0
h -32 -58 0
h -31 -82 0
h -33 -86 0
h -32 -102 0
h -35 -47 0
h -36 -58 0
h -37 -58 0
h -37 -82 0
h -35 -86 0
h -36 -102 0
h -39 -58 0
h -40 -58 0
h -39 -59 0
h -40 -59 0
h -39 -60 0
27382 -40 60 0
h -39 -90 0
h -42 -58 0
h -43 -58 0
h -42 -59 0
h -43 -59 0
h -42 -60 0
27382 -43 60 0
h -42 -93 0
h -44 96 0
h -46 -58 0
27382 -47 58 0
h -48 -58 0
h -49 -58 0
h -46 -59 0
27382 -48 59 0
h -49 -59 0
h -46 -60 0
27382 -49 60 0
h -46 -97 0
h -51 -59 0
h -52 -59 0
h -53 -59 0
h -53 -74 0
h -52 -78 0
h -51 -106 0
h -54 110 0
h -56 -58 0
h -57 -58 0
h -56 -59 0
h -57 -59 0
h -56 -60 0
27382 -57 60 0
h -56 -111 0
h -58 -68 0
h -58 -82 0
h -59 -68 0
h -59 -78 0
h -60 -68 0
h -60 -71 0
h -61 -62 0
h -61 -64 0
h -61 -69 0
h -61 -70 0
h -61 -85 0
27382 -61 -87 0
h -61 -88 0
h -61 -89 0
h -61 -91 0
h -61 -92 0
h -61 -94 0
h -61 -95 0
h -61 -103 0
27382 -61 -104 0
h -61 -105 0
h -61 -112 0
h -61 -113 0
27382 -61 114 0
h -62 -63 0
h -62 -69 0
h -62 -70 0
h -62 -75 0
h -62 -76 0
h -62 -77 0
h -62 -91 0
h -62 -92 0
h -62 -94 0
h -62 -95 0
h -62 -107 0
h -62 -108 0
h -62 -109 0
h -62 -112 0
h -62 -113 0
h -62 -114 0
27382 -62 115 0
27382 -63 -64 0
27382 -63 -66 0
27382 -63 -67 0
h -63 -76 0
h -63 -77 0
27382 -63 -79 0
27382 -63 -80 0
27382 -63 -81 0
27382 -63 -107 0
27382 -63 -108 0
27382 -63 -109 0
h -63 -115 0
h -63 118 0
h -63 121 0
27382 -64 -66 0
27382 -64 -67 0
27382 -64 -83 0
27382 -64 -84 0
27382 -64 -85 0
27382 -64 -87 0
27382 -64 -88 0
27382 -64 -89 0
h -64 -104 0
h -64 -105 0
h -64 -114 0
h -64 118 0
h -64 132 0
h -66 118 0
h -67 125 0
h -67 126 0
h -67 131 0
h -67 136 0
h -69 -73 0
h -70 -72 0
27382 -69 -91 0
h -69 -92 0
h -70 -91 0
h -70 -92 0
27382 -69 -94 0
h -69 -95 0
h -70 -94 0
h -70 -95 0
27382 -69 -98 0
h -69 -99 0
h -69 -100 0
h -69 -101 0
h -70 -98 0
h -70 -99 0
h -70 -100 0
h -70 -101 0
27382 -69 -112 0
h -69 -113 0
h -70 -112 0
h -70 -113 0
h -69 -114 0
h -70 -114 0
h -69 -115 0
h -70 -115 0
h -69 -116 0
h -70 -116 0
27382 -70 117 0
h -69 119 0
27382 -72 -91 0
h -72 -92 0
h -73 -91 0
h -73 -92 0
27382 -72 -94 0
h -72 -95 0
h -73 -94 0
h -73 -95 0
h -72 -98 0
27382 -72 -112 0
h -72 -113 0
h -73 -112 0
h -73 -113 0
h -73 -114 0
h -73 -115 0
h -72 -116 0
h -73 -116 0
27382 -73 117 0
h -72 120 0
27382 -75 -79 0
27382 -75 -80 0
27382 -75 -81 0
27382 -76 -79 0
27382 -76 -80 0
27382 -76 -81 0
27382 -77 -79 0
27382 -77 -80 0
27382 -77 -81 0
27382 -75 -107 0
27382 -75 -108 0
27382 -75 -109 0
27382 -76 -107 0
27382 -76 -108 0
27382 -76 -109 0
27382 -77 -107 0
27382 -77 -108 0
27382 -77 -109 0
h -75 -115 0
h -76 -115 0
h -77 -115 0
h -75 121 0
h -77 122 0
h -76 133 0
27382 -79 -107 0
27382 -79 -108 0
27382 -79 -109 0
27382 -80 -107 0
27382 -80 -108 0
27382 -80 -109 0
27382 -81 -107 0
27382 -81 -108 0
27382 -81 -109 0
h -80 -115 0
h -81 -115 0
h -81 121 0
h -79 122 0
h -80 133 0
27382 -83 -87 0
27382 -83 -88 0
27382 -83 -89 0
27382 -84 -87 0
27382 -84 -88 0
27382 -84 -89 0
27382 -85 -87 0
27382 -85 -88 0
27382 -85 -89 0
h -85 -99 0
27382 -83 -103 0
27382 -83 -104 0
27382 -83 -105 0
27382 -84 -103 0
27382 -84 -104 0
27382 -84 -105 0
27382 -85 -103 0
27382 -85 -104 0
27382 -85 -105 0
h -84 -114 0
h -83 123 0
h -85 124 0
h -84 132 0
h -87 -99 0
27382 -87 -103 0
27382 -87 -104 0
27382 -87 -105 0
27382 -88 -103 0
27382 -88 -104 0
27382 -88 -105 0
27382 -89 -103 0
27382 -89 -104 0
27382 -89 -105 0
h -88 -114 0
h -89 -114 0
h -89 123 0
h -87 124 0
h -88 132 0
h -91 -114 0
h -92 -114 0
h -91 -115 0
h -92 -115 0
h -91 -116 0
27382 -92 116 0
h -91 -117 0
h -91 127 0
h -94 -114 0
h -95 -114 0
h -94 -115 0
h -95 -115 0
h -94 -116 0
27382 -95 116 0
h -94 -117 0
h -94 128 0
h -96 129 0
h -99 -104 0
h -98 -114 0
27382 -99 114 0
h -100 -114 0
h -101 -114 0
h -98 -115 0
27382 -100 115 0
h -101 -115 0
h -98 -116 0
27382 -101 116 0
h -98 -117 0
h -98 130 0
h -103 -114 0
h -105 -114 0
h -105 123 0
h -104 124 0
h -103 132 0
h -107 -115 0
h -108 -115 0
h -109 -115 0
h -109 121 0
h -108 122 0
h -107 133 0
h -110 134 0
h -112 -114 0
h -113 -114 0
h -112 -115 0
h -113 -115 0
h -112 -116 0
27382 -113 116 0
h -112 -117 0
h -112 135 0
h -114 119 0
h -114 123 0
h -115 119 0
h -115 122 0
h -116 119 0
h -116 120 0
h -117 127 0
h -117 128 0
h -117 130 0
h -117 135 0
27382 -118 -125 0
27382 -118 -126 0
27382 -118 -131 0
27382 -118 -136 0
h -119 -127 0
h -119 -128 0
h -119 -130 0
h -119 -135 0
27382 -119 137 0
h -120 -127 0
h -120 -128 0
h -120 -130 0
h -120 -135 0
27382 -120 137 0
27382 -121 -122 0
27382 -121 -133 0
27382 -122 -133 0
27382 -123 -124 0
27382 -123 -132 0
27382 -124 -132 0
h -127 -137 0
h -128 -137 0
h -130 -137 0
h -135 -137 0
13671 -1 0
13671 -4 0
h -7 0
20 -9 0
h 10 0
20 -19 0
20 -22 0
20 -25 0
550 -28 0
500 -29 0
500 -32 0
550 -33 0
600 -36 0
550 -37 0
550 -52 0
600 -53 0
20 -58 0
20 -59 0
20 -60 0
20 -63 0
20 -64 0
20 -67 0
600 -76 0
500 -77 0
550 -80 0
500 -81 0
500 -84 0
550 -85 0
600 -88 0
550 -89 0
600 -104 0
500 -105 0
550 -108 0
600 -109 0
20 -114 0
20 -115 0
20 -116 0
20 -117 0
20 -118 0
600 -121 0
550 -122 0
500 -123 0
600 -124 0
20 -137 0
